\ This file has been generated by DOcplex
\ ENCODING=ISO-8859-1
\Problem name: random_problem.lp

Minimize
 obj: 8 x0 - x1 + 9 x2 - 10 x3 + x4 + 3 x5 - 4 x6 - 5 x7 + 8 x8 - 10 x9 - 8 x10
      - x11 + 7 x12 + 9 x13 + 10 x14 + 3 x15 - 7 x16 + 3 x17 + x18 - 10 x19
      - 5 x20 - 5 x21 - 10 x23 - 6 x26 + 6 x27 - 3 x28 - 7 x29 + 7 x30 - 10 x31
      - 5 x32 + 7 x33 - 4 x35 + 8 x36 + 5 x37 + 4 x38 + 4 x39 - 9 x40 - 8 x41
      - 2 x42 + 7 x44 + 7 x45 + 6 x46 + 5 x47 + 4 x48 - 8 x49 - 2 x50 - 6 x51
      + 7 x52 + x53 + 8 x54 - 10 x55 + 8 x56 + 4 x57 - 5 x58 + 2 x59 - 10 x60
      - 10 x61 - 2 x62 + 6 x63 + 5 x64 + [ - 18 x0*x2 + 10 x0*x7 - 14 x0*x10
      + 8 x0*x15 + 20 x0*x16 - 16 x0*x18 - 20 x0*x35 - 12 x0*x41 + 16 x0*x57
      - 20 x0*x61 - 6 x1*x20 - 10 x1*x21 + 12 x1*x22 + 4 x1*x23 + 16 x1*x25
      - 2 x1*x26 + 14 x1*x34 + 18 x1*x37 - 18 x1*x53 + 20 x1*x56 + 6 x2*x4
      - 20 x2*x11 - 2 x2*x14 + 16 x2*x17 + 6 x2*x48 - 8 x2*x52 + 18 x2*x57
      - 12 x2*x60 - 6 x2*x62 + 2 x3*x6 + 8 x3*x16 + 16 x3*x22 + 12 x3*x24
      + 4 x3*x28 + 6 x3*x29 + 16 x3*x45 - 14 x3*x46 - 20 x3*x54 - 10 x3*x61
      + 14 x4*x21 - 2 x4*x23 - 12 x4*x34 + 10 x4*x36 - 18 x4*x43 + 16 x4*x51
      - 20 x4*x55 - 8 x4*x58 + 4 x4*x60 + 12 x5*x14 - 8 x5*x25 + 16 x5*x27
      + 18 x5*x39 + 6 x5*x41 + 16 x5*x43 - 10 x5*x44 - 18 x5*x51 + 18 x5*x53
      + 18 x5*x64 + 18 x6*x7 - 12 x6*x8 - 18 x6*x9 + 12 x6*x17 - 8 x6*x23
      + 2 x6*x25 + 14 x6*x43 - 20 x6*x47 - 14 x6*x55 + 18 x7*x15 - 16 x7*x22
      + 4 x7*x23 - 8 x7*x49 - 4 x7*x50 - 16 x7*x54 - 4 x7*x63 + 18 x7*x64
      - 4 x8*x10 + 2 x8*x14 - 20 x8*x16 + 10 x8*x25 + 12 x8*x31 - 20 x8*x33
      - 18 x8*x46 - 18 x8*x52 + 16 x8*x54 - 14 x9*x10 - 16 x9*x20 + 12 x9*x21
      + 16 x9*x23 + 6 x9*x24 + 18 x9*x38 - 8 x9*x39 + 16 x9*x45 + 4 x9*x53
      - 8 x10*x17 + 12 x10*x18 - 12 x10*x19 + 2 x10*x26 - 2 x10*x33 + 8 x10*x40
      + 12 x10*x54 + 14 x11*x22 + 14 x11*x26 + 10 x11*x28 + 20 x11*x29
      - 4 x11*x32 - 16 x11*x34 - 6 x11*x35 + 2 x11*x39 + 16 x11*x51 + 10 x12*x13
      - 16 x12*x15 + 14 x12*x22 - 2 x12*x28 - 2 x12*x34 - 16 x12*x35
      + 14 x12*x36 + 6 x12*x51 + 18 x12*x59 + 2 x12*x64 + 8 x13*x19 + 12 x13*x28
      + 2 x13*x32 + 18 x13*x40 - 8 x13*x41 - 16 x13*x46 + 2 x13*x55 - 20 x13*x59
      + 2 x13*x63 - 6 x14*x24 + 14 x14*x29 + 14 x14*x30 - 20 x14*x37
      - 14 x14*x42 - 2 x14*x44 - 16 x14*x53 + 14 x15*x24 - 14 x15*x45
      + 18 x15*x49 - 6 x15*x50 + 20 x15*x51 - 20 x15*x60 - 16 x15*x61
      + 20 x16*x27 + 6 x16*x32 + 10 x16*x33 + 8 x16*x48 + 16 x16*x51
      + 16 x16*x57 + 20 x16*x59 + 16 x17*x21 - 20 x17*x38 + 2 x17*x43
      - 14 x17*x46 - 10 x17*x48 - 20 x17*x49 - 20 x17*x63 + 2 x18*x22
      - 12 x18*x31 + 10 x18*x32 + 6 x18*x38 + 8 x18*x40 + 12 x18*x59
      + 18 x18*x60 - 12 x18*x62 + 4 x19*x24 + 20 x19*x34 - 6 x19*x39 + 8 x19*x41
      - 6 x19*x48 + 12 x19*x56 - 12 x19*x61 + 16 x19*x63 - 16 x20*x27
      + 16 x20*x31 + 6 x20*x39 - 18 x20*x54 + 12 x20*x57 + 20 x20*x61
      - 16 x20*x62 - 20 x20*x64 - 18 x21*x26 + 10 x21*x43 - 2 x21*x44
      + 10 x21*x52 - 10 x21*x60 + 8 x21*x61 - 2 x22*x41 - 6 x22*x46 - 14 x22*x54
      - 14 x22*x62 - 6 x23*x30 - 16 x23*x48 + 2 x23*x51 + 6 x23*x55 - 12 x23*x63
      + 16 x24*x39 - 18 x24*x42 - 10 x24*x59 - 18 x24*x62 + 16 x24*x64
      + 10 x25*x26 + 18 x25*x31 - 14 x25*x38 + 12 x25*x40 - 8 x25*x53
      + 16 x25*x58 - 14 x26*x29 + 18 x26*x31 + 20 x26*x33 + 16 x26*x37
      + 14 x26*x40 - 20 x27*x32 - 16 x27*x42 - 14 x27*x44 - 18 x27*x49
      + 2 x27*x57 - 4 x27*x59 + 4 x27*x61 - 18 x28*x31 + 18 x28*x40 + 4 x28*x44
      - 6 x28*x46 - 10 x28*x47 + 4 x28*x53 - 12 x29*x31 - 20 x29*x35
      - 10 x29*x37 - 8 x29*x39 + 14 x29*x44 - 12 x29*x60 - 10 x30*x35
      - 10 x30*x36 + 8 x30*x37 - 16 x30*x40 + 20 x30*x42 - 16 x30*x45
      + 8 x30*x50 - 2 x30*x56 - 2 x31*x38 - 12 x31*x54 + 10 x31*x63 - 6 x32*x36
      - 8 x32*x37 + 10 x32*x43 + 14 x32*x60 - 20 x32*x64 - 20 x33*x36
      + 2 x33*x40 - 4 x33*x45 - 18 x33*x54 + 18 x33*x56 - 12 x33*x59
      - 20 x34*x35 - 10 x34*x45 + 10 x34*x46 + 16 x34*x53 - 12 x34*x60
      - 16 x35*x52 + 10 x35*x53 - 8 x35*x55 + 20 x35*x56 - 10 x36*x43
      - 12 x36*x44 - 8 x36*x50 + 14 x36*x52 + 2 x36*x62 + 10 x37*x38
      + 18 x37*x43 - 18 x37*x47 + 2 x37*x58 - 2 x38*x42 + 10 x38*x51
      - 20 x38*x52 - 6 x38*x62 + 4 x39*x45 - 6 x39*x49 + 2 x39*x62 - 10 x40*x41
      + 12 x40*x52 - 6 x41*x47 - 20 x41*x53 + 4 x41*x55 + 16 x41*x62
      + 10 x42*x44 + 6 x42*x48 + 18 x42*x50 + 14 x42*x56 + 8 x42*x58
      - 20 x43*x51 + 8 x43*x64 + 6 x44*x49 - 16 x44*x58 + 6 x45*x50 + 8 x45*x52
      - 20 x45*x63 + 4 x46*x48 + 2 x46*x50 - 14 x46*x63 - 18 x47*x48
      - 18 x47*x49 + 18 x47*x50 - 10 x47*x55 - 12 x47*x56 - 10 x47*x58
      + 10 x48*x59 + 18 x48*x62 - 16 x49*x50 + 4 x49*x57 + 10 x49*x63
      + 12 x50*x59 - 6 x51*x54 - 4 x52*x57 + 14 x52*x64 + 4 x53*x59 + 16 x54*x55
      - 16 x55*x57 + 10 x55*x61 + 20 x56*x58 - 14 x56*x61 - 8 x56*x64
      + 18 x57*x58 + 14 x57*x64 + 20 x58*x60 + 20 x58*x63 - 4 x60*x61 ]/2
Subject To
 c0: - 2 x1 + x11 - x13 - 2 x16 - x25 - x49 + 2 x56 - 2 x60 + x61 - 2 x64 = -2
 c1: x1 + 2 x8 - x16 + 2 x39 - x44 - x45 + 2 x51 - 2 x53 - x57 - x63 = -2
 c2: - x3 - 2 x4 + x31 - 2 x32 + 2 x34 + 2 x38 - 2 x41 + x45 + x46 + 2 x64 = 0
 c3: x8 - 2 x10 + x20 + 2 x43 - x47 - x52 + x54 + 2 x55 - x57 + 2 x60 = 0
 c4: x2 - 2 x14 + 2 x26 - x28 + 2 x35 - x42 + x48 - x54 - x63 - 2 x64 = -1
 c5: x1 + x10 - 2 x31 - x33 - 2 x38 - 2 x41 - 2 x48 + x49 + 2 x55 - x61 = 1
 c6: x5 + x11 + x16 - x25 - x31 - 2 x34 - x35 - x37 - 2 x45 - x58 = 0
 c7: - x11 + x12 + x20 + x21 + 2 x27 + 2 x36 + 2 x51 - x57 - 2 x58 - 2 x61 = -2
 c8: - 2 x6 + 2 x12 + x21 - x34 + 2 x35 - x44 + 2 x54 - 2 x57 - 2 x62 - 2 x64
      = 0
 c9: x7 - x26 - 2 x30 - x31 - x39 - x44 + x45 - x48 - x52 + 2 x57 = -1
 c10: x6 - x7 + x8 + 2 x9 - x10 - x18 - 2 x31 - x32 + 2 x41 + x55 = -1
 c11: x1 - 2 x4 - 2 x23 + 2 x27 + x28 + x34 - x35 - x36 + 2 x39 + x63 = 1
 c12: - x3 - 2 x8 - x18 + 2 x25 + 2 x28 - 2 x39 + 2 x40 - 2 x41 + x45 + x61 = 
      -2

Bounds
 0 <= x0 <= 1
 0 <= x1 <= 1
 0 <= x2 <= 1
 0 <= x3 <= 1
 0 <= x4 <= 1
 0 <= x5 <= 1
 0 <= x6 <= 1
 0 <= x7 <= 1
 0 <= x8 <= 1
 0 <= x9 <= 1
 0 <= x10 <= 1
 0 <= x11 <= 1
 0 <= x12 <= 1
 0 <= x13 <= 1
 0 <= x14 <= 1
 0 <= x15 <= 1
 0 <= x16 <= 1
 0 <= x17 <= 1
 0 <= x18 <= 1
 0 <= x19 <= 1
 0 <= x20 <= 1
 0 <= x21 <= 1
 0 <= x22 <= 1
 0 <= x23 <= 1
 0 <= x24 <= 1
 0 <= x25 <= 1
 0 <= x26 <= 1
 0 <= x27 <= 1
 0 <= x28 <= 1
 0 <= x29 <= 1
 0 <= x30 <= 1
 0 <= x31 <= 1
 0 <= x32 <= 1
 0 <= x33 <= 1
 0 <= x34 <= 1
 0 <= x35 <= 1
 0 <= x36 <= 1
 0 <= x37 <= 1
 0 <= x38 <= 1
 0 <= x39 <= 1
 0 <= x40 <= 1
 0 <= x41 <= 1
 0 <= x42 <= 1
 0 <= x43 <= 1
 0 <= x44 <= 1
 0 <= x45 <= 1
 0 <= x46 <= 1
 0 <= x47 <= 1
 0 <= x48 <= 1
 0 <= x49 <= 1
 0 <= x50 <= 1
 0 <= x51 <= 1
 0 <= x52 <= 1
 0 <= x53 <= 1
 0 <= x54 <= 1
 0 <= x55 <= 1
 0 <= x56 <= 1
 0 <= x57 <= 1
 0 <= x58 <= 1
 0 <= x59 <= 1
 0 <= x60 <= 1
 0 <= x61 <= 1
 0 <= x62 <= 1
 0 <= x63 <= 1
 0 <= x64 <= 1

Binaries
 x0 x1 x2 x3 x4 x5 x6 x7 x8 x9 x10 x11 x12 x13 x14 x15 x16 x17 x18 x19 x20 x21
 x22 x23 x24 x25 x26 x27 x28 x29 x30 x31 x32 x33 x34 x35 x36 x37 x38 x39 x40 x41
 x42 x43 x44 x45 x46 x47 x48 x49 x50 x51 x52 x53 x54 x55 x56 x57 x58 x59 x60 x61
 x62 x63 x64
End
